
Gurobi 11.0.1 (win64) logging started Thu May 16 18:51:23 2024

Set parameter LogFile to value "output/solver_log20.txt"
Gurobi Optimizer version 11.0.1 build v11.0.1rc0 (win64 - Windows 11.0 (22631.2))

CPU model: 11th Gen Intel(R) Core(TM) i7-1165G7 @ 2.80GHz, instruction set [SSE2|AVX|AVX2|AVX512]
Thread count: 4 physical cores, 8 logical processors, using up to 8 threads

Optimize a model with 5076 rows, 1284 columns and 95320 nonzeros
Model fingerprint: 0x12288488
Variable types: 568 continuous, 716 integer (716 binary)
Coefficient statistics:
  Matrix range     [4e-01, 1e+05]
  Objective range  [1e+00, 1e+02]
  Bounds range     [1e+00, 1e+00]
  RHS range        [1e-02, 1e+05]

User MIP start produced solution with objective 40320.2 (0.01s)
User MIP start produced solution with objective 40320.2 (0.01s)
Loaded user MIP start with objective 40320.2

Presolve removed 804 rows and 416 columns
Presolve time: 0.11s
Presolved: 4272 rows, 868 columns, 81637 nonzeros
Variable types: 529 continuous, 339 integer (332 binary)

Root relaxation: objective 5.155761e+04, 1583 iterations, 0.07 seconds (0.15 work units)

    Nodes    |    Current Node    |     Objective Bounds      |     Work
 Expl Unexpl |  Obj  Depth IntInf | Incumbent    BestBd   Gap | It/Node Time

     0     0 51557.6128    0   48 40320.2119 51557.6128  27.9%     -    0s
     0     0 51006.1222    0   65 40320.2119 51006.1222  26.5%     -    0s
     0     0 50279.4376    0   61 40320.2119 50279.4376  24.7%     -    0s
     0     0 50279.4376    0   67 40320.2119 50279.4376  24.7%     -    0s
     0     0 50210.0756    0   76 40320.2119 50210.0756  24.5%     -    0s
     0     0 50209.9384    0   74 40320.2119 50209.9384  24.5%     -    1s
     0     0 50209.9384    0   84 40320.2119 50209.9384  24.5%     -    1s
     0     0 50209.9384    0   79 40320.2119 50209.9384  24.5%     -    1s
     0     0 50209.9384    0   86 40320.2119 50209.9384  24.5%     -    1s
     0     0 50185.5836    0   91 40320.2119 50185.5836  24.5%     -    1s
     0     0 50059.4438    0   75 40320.2119 50059.4438  24.2%     -    1s
     0     0 50059.4438    0   74 40320.2119 50059.4438  24.2%     -    1s
     0     0 50052.0874    0   80 40320.2119 50052.0874  24.1%     -    1s
     0     0 49801.4246    0   84 40320.2119 49801.4246  23.5%     -    2s
     0     0 49649.0182    0   84 40320.2119 49649.0182  23.1%     -    2s
     0     0 49649.0182    0   83 40320.2119 49649.0182  23.1%     -    2s
     0     0 49649.0182    0   84 40320.2119 49649.0182  23.1%     -    2s
     0     0 49649.0182    0   83 40320.2119 49649.0182  23.1%     -    2s
     0     0 49591.1285    0   83 40320.2119 49591.1285  23.0%     -    2s
     0     0 49591.1285    0   87 40320.2119 49591.1285  23.0%     -    2s
     0     0 49591.1285    0   89 40320.2119 49591.1285  23.0%     -    2s
     0     0 49591.1285    0   83 40320.2119 49591.1285  23.0%     -    2s
     0     0 49591.1285    0   83 40320.2119 49591.1285  23.0%     -    2s
     0     0 49591.1285    0   83 40320.2119 49591.1285  23.0%     -    2s
     0     0 49591.1285    0   85 40320.2119 49591.1285  23.0%     -    2s
     0     0 49591.1285    0   91 40320.2119 49591.1285  23.0%     -    2s
     0     0 49591.1285    0   86 40320.2119 49591.1285  23.0%     -    3s
     0     0 48640.4187    0   88 40320.2119 48640.4187  20.6%     -    3s
     0     0 48640.4187    0   73 40320.2119 48640.4187  20.6%     -    3s
     0     0 48640.4187    0   81 40320.2119 48640.4187  20.6%     -    3s
     0     0 48640.4187    0   81 40320.2119 48640.4187  20.6%     -    3s
     0     0 48640.4187    0   80 40320.2119 48640.4187  20.6%     -    3s
     0     0 48538.2330    0   80 40320.2119 48538.2330  20.4%     -    3s
     0     2 48538.2330    0   80 40320.2119 48538.2330  20.4%     -    3s
    23    28 41345.9507    6   38 40320.2119 47495.3389  17.8%   601    5s
   236   163 44485.0060    7   30 40320.2119 46855.8036  16.2%   606   10s
H  316   200                    40320.392208 46855.8036  16.2%   634   11s
   469   245     cutoff   15      40320.3922 45876.8685  13.8%   660   15s
H  550   255                    40323.524544 45709.8910  13.4%   659   16s
H  632   263                    40325.905712 45656.2772  13.2%   661   18s
   740   272 44750.0149    7   48 40325.9057 45202.4146  12.1%   658   21s
   906   288 40935.1677   11   49 40325.9057 44918.0309  11.4%   677   25s
  1207   315     cutoff   14      40325.9057 44408.1154  10.1%   689   30s
  1314   314 42252.6106   10   31 40325.9057 44292.0211  9.84%   687   35s
  1664   347     cutoff   15      40325.9057 44040.4098  9.21%   698   44s
  1686   357     cutoff   13      40325.9057 44038.2225  9.21%   699   45s
  2007   379 40583.3400   12   48 40325.9057 43428.1147  7.69%   704   51s
  2336   363     cutoff   12      40325.9057 43171.3413  7.06%   698   55s
  2698   316     cutoff   12      40325.9057 42683.8076  5.85%   692   60s

Cutting planes:
  Gomory: 1
  Implied bound: 19
  MIR: 159
  RLT: 7
  Relax-and-lift: 3
  BQP: 3

Explored 2749 nodes (1914045 simplex iterations) in 60.02 seconds (138.19 work units)
Thread count was 8 (of 8 available processors)

Solution count 4: 40325.9 40323.5 40320.4 40320.2 

Time limit reached
Best objective 4.032590571214e+04, best bound 4.264257449516e+04, gap 5.7449%
